/*********************************************
 * OPL 12.6.0.0 Data
 * Author: bscuser
 * Creation Date: 22/10/2018 at 10:40:54
 *********************************************/

 numServices = 2;
 numDrivers = 2;
 numBuses = 2;
 maxBuses = 3;
 services = [<10,10,10,10>, <30,10,10,20>];
 drivers = [<2000,3,0.5,0.8>,<2000,30,0.5,0.8>];
 buses = [<1000,10,10>,<1000,10,10>];
